POSCAR-STAN
1.0
5.0371000000 0.0000000000 0.0000000000 
0.0000000000 0.0000000000 -5.0371000000 
0.0000000000 5.0371000000 0.0000000000 
  Zr   O 
  4   8 
Direct
  0.250000000000   0.000000000000   0.750000000000 
  0.250000000000   0.250000000000   0.000000000000 
  0.250000000000   0.000000000000   0.250000000000 
  0.750000000000   0.250000000000   0.000000000000 
  0.125000000000   0.375000000000   0.250000000000 
  0.375000000000   0.125000000000   0.250000000000 
  0.125000000000   0.125000000000   0.000000000000 
  0.875000000000   0.375000000000   0.000000000000 
  0.125000000000   0.375000000000   0.750000000000 
  0.375000000000   0.125000000000   0.750000000000 
  0.625000000000   0.125000000000   0.000000000000 
  0.375000000000   0.375000000000   0.000000000000 
