POSCAR-STAN
1.0
0.0000000000 2.5185500000 2.5185500000 
2.5185500000 0.0000000000 2.5185500000 
2.5185500000 2.5185500000 0.0000000000 
  Zr   O 
  1   2 
Direct
  0.500000000000   0.500000000000   0.500000000000 
  0.750000000000   0.750000000000   0.750000000000 
  0.250000000000   0.250000000000   0.250000000000 
