POSCAR-PRIM
1.0
2.661821 -4.610410 0.000000
2.661821 4.610410 0.000000
0.000000 0.000000 16.616946
Au F 
6 18 
Direct
0.240599500000  0.481199000000  0.250000000000  
0.759400500000  0.240599500000  0.416666666667  
0.518801000000  0.759400500000  0.583333333333  
0.759400500000  0.518801000000  0.750000000000  
0.240599500000  0.759400500000  0.916666666667  
0.481199000000  0.240599500000  0.083333333333  
0.223953000000  0.536063000000  0.662368000000  
0.687890000000  0.223953000000  0.829034666667  
0.463937000000  0.687890000000  0.995701333333  
0.776047000000  0.463937000000  0.162368000000  
0.312110000000  0.776047000000  0.329034666667  
0.536063000000  0.312110000000  0.495701333333  
0.463937000000  0.776047000000  0.170965333333  
0.776047000000  0.312110000000  0.004298666667  
0.312110000000  0.536063000000  0.837632000000  
0.536063000000  0.223953000000  0.670965333333  
0.223953000000  0.687890000000  0.504298666667  
0.687890000000  0.463937000000  0.337632000000  
0.000000000000  0.167330000000  0.333333333333  
0.832670000000  0.000000000000  0.500000000000  
0.832670000000  0.832670000000  0.666666666667  
0.000000000000  0.832670000000  0.833333333333  
0.167330000000  0.000000000000  0.000000000000  
0.167330000000  0.167330000000  0.166666666667  
